(set-info :smt-lib-version 2.6)
(set-logic QF_S)
(set-info :source |
Generated by: Oliver Markgraf, Hongjian Jiang, Daniel Stan, Anthony W. Lin, Philipp Ruemmer
Generated on: 2025-04-08
Application: Using String Solvers to solve RMC problems encoded as CHC over Strings
Target solver: cvc5, OSTRICH, Z3, Z3alpha, Z3-noodler
Time limit: 60.0
Benchmarks are extracted by running HornStr https://arg-git.informatik.uni-kl.de/pub/string-chc-lib on all benchmarks
provided in the repository and gathering the string queries sent to the string solvers.
|)
(set-info :license "https://creativecommons.org/licenses/by/4.0/")
(set-info :category "industrial")
(declare-fun varout () String)
(assert (let ((a!1 (re.union (re.union (re.union (str.to_re "e") (str.to_re "a"))
                               (str.to_re "f"))
                     (str.to_re "b"))))
(let ((a!2 (re.union (re.union (re.union a!1 (str.to_re "c")) (str.to_re "Z"))
                     (str.to_re "d"))))
  (str.in_re varout (re.* a!2)))))
(declare-fun varin () String)
(assert (let ((a!1 (re.union (re.union (re.union (str.to_re "e") (str.to_re "a"))
                               (str.to_re "f"))
                     (str.to_re "b"))))
(let ((a!2 (re.union (re.union (re.union a!1 (str.to_re "c")) (str.to_re "Z"))
                     (str.to_re "d"))))
  (str.in_re varin (re.* a!2)))))
(declare-fun X () String)
(declare-fun reg0 () String)
(declare-fun Y () String)
(declare-fun isin () Bool)
(declare-fun isout () Bool)
(assert (let ((a!1 (re.union (re.union (re.union (str.to_re "a") (str.to_re "c"))
                               (str.to_re "e"))
                     (str.to_re "f"))))
  (or (and true
           (= X (str.++ reg0))
           (= Y (str.++ reg0))
           (str.in_re reg0 (re.* a!1))
           (= X varin)
           isin
           (= Y varout)
           isout))))
(set-info :status unknown)
(check-sat)
(set-info :status unknown)
(check-sat)
(exit)
